(declare-fun bvlambda_17_ ()Bool         )
(declare-fun bvlambda_31_ ()Bool         )
(declare-fun a135 () (Array (_ BitVec 1) (_ BitVec 9)))
(assert
(let (($e1 false    ))
(let (($e16 (_ bv0 15)))
(let (($e30 (_ bv0 6)))
(let (($e31 (_ bv510 9)))
(let (($e32 (_ bv2 9)))
(let (($e35 (_ bv0 14)))
(let (($e49 (_ bv37630 16)))
(let (($e148         bvlambda_17_              ))
(let (($e149         $e148              ))
(let (($e150         $e149              ))
(let (($e151         $e150              ))
(let (($e152         $e151              ))
(let (($e153         $e152              ))
(let (($e154        $e153       ))
(let (($e155                  $e154 ))
(let (($e156 (store a135 $e1        $e31 )))
(let (($e157 (store $e156 $e155        $e32 )))
(let (($e170 (select a135 true         )))
(let (($e172                      $e170 ))
(let (($e174                    $e172       ))
(let (($e177 (   extract        $e174)))
(let (($e178               $e177                ))
(let (($e180 (concat $e16        $e178 )))
(let (($e181                    $e180       ))
(let (($e182      (bvult $e49 $e181)         ))
(let (($e183               $e182        ))
(let (($e192               (bvnot $e183)          ))
(let (($e236               $e192          ))
(let (($e257                      $e236 ))
(let (($e281 (concat (bvnot $e35)        bvlambda_31_ )))
(let (($e282        $e281       ))
(let (($e284                    (bvnot $e282)               ))
(let (($e292 (select $e157 true       )))
(let (($e299              $e292 ))
(let (($e301 (concat $e30 (bvnot $e299))))
(let (($e303                    $e301       ))
(let (($e306                          $e303 ))
(let (($e307         $e306       ))
(let (($e309                          $e307 ))
(let (($e310      (bvult $e309 $e284)         ))
(let (($e311               $e310        ))
             (bvand        $e311  $e257)
                                                                                                                                                                                                                                                                                                                                                                                                                                                                                                                                                                                                                                                                                                                                                                                                                                                                                                                                                                                                                                                                                                                                                                                                                                                                                                                                                                                                                                                                                                                                                                                                                                                                                      ))) ))  ) ) )      )       ) ))                       )                    )                                           )        )))) ))  ) ) )            ))))))))))                                                   )             )  )))             )              ))
